
******************************************************************************
This program contains Ipopt, a library for large-scale nonlinear optimization.
 Ipopt is released as open source code under the Eclipse Public License (EPL).
         For more information visit http://projects.coin-or.org/Ipopt
******************************************************************************

This is Ipopt version 3.12.4, running with linear solver mumps.
NOTE: Other linear solvers might be more efficient (see Ipopt documentation).

Number of nonzeros in equality constraint Jacobian...:        0
Number of nonzeros in inequality constraint Jacobian.:        0
Number of nonzeros in Lagrangian Hessian.............:        0

Total number of variables............................:     9261
                     variables with only lower bounds:        0
                variables with lower and upper bounds:        0
                     variables with only upper bounds:        0
Total number of equality constraints.................:        0
Total number of inequality constraints...............:        0
        inequality constraints with only lower bounds:        0
   inequality constraints with lower and upper bounds:        0
        inequality constraints with only upper bounds:        0

iter    objective    inf_pr   inf_du lg(mu)  ||d||  lg(rg) alpha_du alpha_pr  ls
   0 8.8941052e-003 0.00e+000 1.90e-001   0.0 0.00e+000    -  0.00e+000 0.00e+000   0
   1 7.4339121e-003 0.00e+000 1.73e-001 -11.0 1.90e-001    -  1.00e+000 1.00e+000f  1
   2 2.8005388e-005 0.00e+000 8.68e-003 -11.0 2.03e+000    -  1.00e+000 1.00e+000f  1
   3 2.4970068e-005 0.00e+000 7.73e-003 -11.0 1.03e-001    -  1.00e+000 1.00e+000f  1
   4 2.3871767e-005 0.00e+000 6.33e-003 -11.0 3.13e-001    -  1.00e+000 1.00e+000f  1
   5 2.3871767e-005 0.00e+000 6.33e-003 -11.0 1.15e+000    -  1.00e+000 9.09e-013f 41
   6 2.3871767e-005 0.00e+000 6.33e-003 -11.0 1.39e+001    -  1.00e+000 1.78e-015f 50
   7 2.3871767e-005 0.00e+000 6.33e-003 -11.0 4.96e+003    -  1.00e+000 8.67e-019f 61
   8 2.3871767e-005 0.00e+000 6.33e-003 -11.0 4.96e+003    -  1.00e+000 1.39e-017f 57
   9 2.3871767e-005 0.00e+000 6.33e-003 -11.0 4.75e+006    -  1.00e+000 1.69e-021f 70
iter    objective    inf_pr   inf_du lg(mu)  ||d||  lg(rg) alpha_du alpha_pr  ls
  10 2.3871767e-005 0.00e+000 6.33e-003 -11.0 4.75e+006    -  1.00e+000 8.47e-022f 71
  11 2.3871767e-005 0.00e+000 6.33e-003 -11.0 4.75e+006    -  1.00e+000 4.24e-022f 72
  12 2.3857811e-005 0.00e+000 6.34e-003 -11.0 6.33e-003    -  1.00e+000 1.00e+000f  1
  13 2.3847435e-005 0.00e+000 6.35e-003 -11.0 2.65e+000    -  1.00e+000 3.12e-002f  6
  14 2.3847435e-005 0.00e+000 6.35e-003 -11.0 4.29e+001    -  1.00e+000 7.11e-015f 48
  15 2.3847435e-005 0.00e+000 6.35e-003 -11.0 3.59e+002    -  1.00e+000 1.11e-016f 54
  16 2.3847435e-005 0.00e+000 6.35e-003 -11.0 1.59e+002    -  1.00e+000 1.14e-013f 44
  17 2.3847435e-005 0.00e+000 6.35e-003 -11.0 4.18e+001    -  1.00e+000 5.55e-017f 55
  18 2.3847435e-005 0.00e+000 6.35e-003 -11.0 4.18e+001    -  1.00e+000 1.39e-017f 57
  19 2.3847435e-005 0.00e+000 6.35e-003 -11.0 4.18e+001    -  1.00e+000 2.78e-017f 56
iter    objective    inf_pr   inf_du lg(mu)  ||d||  lg(rg) alpha_du alpha_pr  ls
  20 2.3843416e-005 0.00e+000 6.36e-003 -11.0 6.35e-003    -  1.00e+000 1.00e+000f  1
  21 2.3843416e-005 0.00e+000 6.36e-003 -11.0 6.82e+000    -  1.00e+000 2.27e-013f 43
  22 2.3843416e-005 0.00e+000 6.36e-003 -11.0 5.91e+002    -  1.00e+000 5.55e-017f 55
  23 2.3843416e-005 0.00e+000 6.36e-003 -11.0 4.17e+001    -  1.00e+000 1.39e-017f 57
  24 2.3843416e-005 0.00e+000 6.36e-003 -11.0 4.17e+001    -  1.00e+000 1.39e-017f 57
  25 2.3843416e-005 0.00e+000 6.36e-003 -11.0 4.17e+001    -  1.00e+000 1.39e-017f 57
  26 2.3840717e-005 0.00e+000 6.37e-003 -11.0 6.36e-003    -  1.00e+000 1.00e+000f  1
  27 2.3840717e-005 0.00e+000 6.37e-003 -11.0 8.62e+000    -  1.00e+000 1.14e-013f 44
  28 2.3840717e-005 0.00e+000 6.37e-003 -11.0 1.84e+002    -  1.00e+000 1.78e-015f 50
  29 2.3840717e-005 0.00e+000 6.37e-003 -11.0 1.17e+004    -  1.00e+000 5.42e-020f 65
iter    objective    inf_pr   inf_du lg(mu)  ||d||  lg(rg) alpha_du alpha_pr  ls
  30 2.3840717e-005 0.00e+000 6.37e-003 -11.0 1.17e+004    -  1.00e+000 2.71e-020f 66
  31 2.3840717e-005 0.00e+000 6.37e-003 -11.0 1.17e+004    -  1.00e+000 2.71e-020f 66
  32 2.3839143e-005 0.00e+000 6.37e-003 -11.0 6.37e-003    -  1.00e+000 1.00e+000f  1
  33 2.3839143e-005 0.00e+000 6.37e-003 -11.0 1.10e+001    -  1.00e+000 4.55e-013f 42
  34 2.3839143e-005 0.00e+000 6.37e-003 -11.0 3.54e+002    -  1.00e+000 1.78e-015f 50
  35 2.3839143e-005 0.00e+000 6.37e-003 -11.0 5.27e+001    -  1.00e+000 1.42e-014f 47
  36 2.3837925e-005 0.00e+000 6.49e-003 -11.0 1.26e+002    -  1.00e+000 9.77e-004f 11
  37 2.3837925e-005 0.00e+000 6.49e-003 -11.0 1.87e+005    -  1.00e+000 5.55e-017f 55
  38 2.3837925e-005 0.00e+000 6.49e-003 -11.0 1.87e+005    -  1.00e+000 5.42e-020f 65
  39 2.3837925e-005 0.00e+000 6.49e-003 -11.0 1.87e+005    -  1.00e+000 1.36e-020f 67
iter    objective    inf_pr   inf_du lg(mu)  ||d||  lg(rg) alpha_du alpha_pr  ls
  40 2.3837925e-005 0.00e+000 6.49e-003 -11.0 6.49e-003    -  1.00e+000 2.84e-014f 46
  41 2.3837925e-005 0.00e+000 6.49e-003 -11.0 6.49e-003    -  1.00e+000 2.84e-014f 46
  42 2.3837925e-005 0.00e+000 6.49e-003 -11.0 6.49e-003    -  1.00e+000 2.84e-014f 46
  43 2.3841298e-005 0.00e+000 6.49e-003 -11.0 6.49e-003    -  1.00e+000 1.00e+000w  1
  44 1.7783135e-004 0.00e+000 2.24e-002 -11.0 1.93e+001    -  1.00e+000 1.00e+000w  1
  45 2.3118062e-002 0.00e+000 4.67e-001 -11.0 1.08e+002    -  1.00e+000 1.00e+000w  1
  46 2.3841298e-005 0.00e+000 6.49e-003 -11.0 8.42e+001    -  1.00e+000 1.00e+000S 21
  47 2.3841298e-005 0.00e+000 6.49e-003 -11.0 5.12e+001    -  1.00e+000 1.39e-017f 57
  48 2.3841298e-005 0.00e+000 6.49e-003 -11.0 5.12e+001    -  1.00e+000 6.94e-018f 58
  49 2.3841298e-005 0.00e+000 6.49e-003 -11.0 5.12e+001    -  1.00e+000 3.55e-015f 49
iter    objective    inf_pr   inf_du lg(mu)  ||d||  lg(rg) alpha_du alpha_pr  ls
  50 2.3841298e-005 0.00e+000 6.49e-003 -11.0 6.49e-003    -  1.00e+000 2.33e-010f 33
  51 2.3841298e-005 0.00e+000 6.49e-003 -11.0 3.09e+001    -  1.00e+000 3.55e-015f 49
  52 2.3841298e-005 0.00e+000 6.49e-003 -11.0 4.61e+002    -  1.00e+000 4.44e-016f 52
  53 2.3841298e-005 0.00e+000 6.49e-003 -11.0 3.15e+002    -  1.00e+000 6.94e-018f 58
  54 2.3841298e-005 0.00e+000 6.49e-003 -11.0 3.15e+002    -  1.00e+000 3.47e-018f 59
  55 2.3841298e-005 0.00e+000 6.49e-003 -11.0 3.15e+002    -  1.00e+000 1.39e-017f 57
  56 2.3841298e-005 0.00e+000 6.49e-003 -11.0 6.49e-003    -  1.00e+000 1.82e-012f 40
  57 2.3845074e-005 0.00e+000 6.49e-003 -11.0 6.49e-003    -  1.00e+000 1.00e+000w  1
  58 2.4024008e-004 0.00e+000 2.62e-002 -11.0 2.38e+001    -  1.00e+000 1.00e+000w  1
  59 2.3379386e-002 0.00e+000 4.67e-001 -11.0 1.06e+002    -  1.00e+000 1.00e+000w  1
iter    objective    inf_pr   inf_du lg(mu)  ||d||  lg(rg) alpha_du alpha_pr  ls
  60 2.3845074e-005 0.00e+000 6.49e-003 -11.0 8.71e+001    -  1.00e+000 1.00e+000S 21
  61 2.3845074e-005 0.00e+000 6.49e-003 -11.0 5.10e+001    -  1.00e+000 2.84e-014f 46
  62 2.3845074e-005 0.00e+000 6.49e-003 -11.0 1.70e+003    -  1.00e+000 4.44e-016f 52
  63 2.3845074e-005 0.00e+000 6.49e-003 -11.0 1.70e+003    -  1.00e+000 2.22e-016f 53
  64 2.3845074e-005 0.00e+000 6.49e-003 -11.0 3.08e+003    -  1.00e+000 5.55e-017f 55
  65 2.3845074e-005 0.00e+000 6.49e-003 -11.0 3.08e+003    -  1.00e+000 2.22e-016f 53
  66 2.3845074e-005 0.00e+000 6.49e-003 -11.0 2.43e+006    -  1.00e+000 5.42e-020f 65
  67 2.3845074e-005 0.00e+000 6.49e-003 -11.0 2.43e+006    -  1.00e+000 6.78e-021f 68
  68 2.3845074e-005 0.00e+000 6.49e-003 -11.0 2.43e+006    -  1.00e+000 1.08e-019f 64
  69 2.3845074e-005 0.00e+000 6.49e-003 -11.0 6.49e-003    -  1.00e+000 1.82e-012f 40
iter    objective    inf_pr   inf_du lg(mu)  ||d||  lg(rg) alpha_du alpha_pr  ls
  70 2.3845074e-005 0.00e+000 6.49e-003 -11.0 6.49e-003    -  1.00e+000 2.91e-011f 36
  71 3.8467779e-004 0.00e+000 4.47e-002 -11.0 1.97e+001    -  1.00e+000 1.00e+000w  1
  72 6.8685081e-002 0.00e+000 5.07e-001 -11.0 4.84e+002    -  1.00e+000 1.00e+000w  1
  73 5.0394752e-002 0.00e+000 5.84e-001 -11.0 2.98e+002    -  1.00e+000 1.00e+000w  1
  74 3.8467779e-004 0.00e+000 4.47e-002 -11.0 2.18e+003    -  1.00e+000 1.00e+000S 21
  75 3.8417874e-004 0.00e+000 4.33e-002 -11.0 5.00e+001    -  1.00e+000 2.50e-001f  3
  76 3.8417874e-004 0.00e+000 4.33e-002 -11.0 1.32e+005    -  1.00e+000 6.94e-018f 58
  77 3.8417874e-004 0.00e+000 4.33e-002 -11.0 2.02e+006    -  1.00e+000 6.78e-021f 68
  78 3.8417874e-004 0.00e+000 4.33e-002 -11.0 2.02e+006    -  1.00e+000 2.71e-020f 66
  79 3.8290090e-004 0.00e+000 4.32e-002 -11.0 7.53e+002    -  1.00e+000 3.91e-003f  9
iter    objective    inf_pr   inf_du lg(mu)  ||d||  lg(rg) alpha_du alpha_pr  ls
  80 3.8290090e-004 0.00e+000 4.32e-002 -11.0 7.47e+003    -  1.00e+000 1.39e-017f 57
  81 3.8290090e-004 0.00e+000 4.32e-002 -11.0 7.47e+003    -  1.00e+000 5.55e-017f 55
  82 3.8290090e-004 0.00e+000 4.32e-002 -11.0 2.18e+004    -  1.00e+000 2.78e-017f 56
  83 3.8290090e-004 0.00e+000 4.32e-002 -11.0 2.18e+004    -  1.00e+000 8.67e-019f 61
  84 3.8290090e-004 0.00e+000 4.32e-002 -11.0 2.18e+004    -  1.00e+000 1.08e-019f 64
  85 3.4611611e-004 0.00e+000 4.08e-002 -11.0 4.32e-002    -  1.00e+000 1.00e+000f  1
  86 5.2168658e-005 0.00e+000 5.85e-003 -11.0 7.76e-001    -  1.00e+000 1.00e+000f  1
  87 4.9056830e-005 0.00e+000 4.98e-003 -11.0 1.05e-001    -  1.00e+000 1.00e+000f  1
  88 4.5966024e-005 0.00e+000 5.32e-003 -11.0 3.24e-001    -  1.00e+000 1.00e+000f  1
  89 4.5334724e-005 0.00e+000 5.63e-003 -11.0 1.08e+000    -  1.00e+000 5.00e-001f  2
iter    objective    inf_pr   inf_du lg(mu)  ||d||  lg(rg) alpha_du alpha_pr  ls
  90 4.5334471e-005 0.00e+000 5.64e-003 -11.0 2.08e+000    -  1.00e+000 3.91e-003f  9
  91 4.5334471e-005 0.00e+000 5.64e-003 -11.0 9.70e+000    -  1.00e+000 2.27e-013f 43
  92 4.5334471e-005 0.00e+000 5.64e-003 -11.0 1.30e+003    -  1.00e+000 6.94e-018f 58
  93 4.5334471e-005 0.00e+000 5.64e-003 -11.0 1.30e+003    -  1.00e+000 8.67e-019f 61
  94 4.5334471e-005 0.00e+000 5.64e-003 -11.0 1.30e+003    -  1.00e+000 8.67e-019f 61
  95 4.5133188e-005 0.00e+000 5.64e-003 -11.0 5.64e-003    -  1.00e+000 1.00e+000f  1
  96 4.3551645e-005 0.00e+000 5.85e-003 -11.0 2.69e-001    -  1.00e+000 1.00e+000f  1
  97 4.3473992e-005 0.00e+000 5.95e-003 -11.0 7.01e-001    -  1.00e+000 2.50e-001f  3
  98 4.3473992e-005 0.00e+000 5.95e-003 -11.0 2.71e+001    -  1.00e+000 2.22e-016f 53
  99 4.3473992e-005 0.00e+000 5.95e-003 -11.0 2.71e+001    -  1.00e+000 5.55e-017f 55
iter    objective    inf_pr   inf_du lg(mu)  ||d||  lg(rg) alpha_du alpha_pr  ls
 100 4.3473992e-005 0.00e+000 5.95e-003 -11.0 2.71e+001    -  1.00e+000 5.55e-017f 55
 101 4.3425655e-005 0.00e+000 5.95e-003 -11.0 5.95e-003    -  1.00e+000 1.00e+000f  1
 102 4.3377670e-005 0.00e+000 5.95e-003 -11.0 3.93e-001    -  1.00e+000 5.00e-001f  2
 103 4.3377670e-005 0.00e+000 5.95e-003 -11.0 2.31e+000    -  1.00e+000 8.88e-016f 51
 104 4.3377670e-005 0.00e+000 5.95e-003 -11.0 2.31e+000    -  1.00e+000 2.22e-016f 53
 105 4.3377670e-005 0.00e+000 5.95e-003 -11.0 2.31e+000    -  1.00e+000 2.22e-016f 53
 106 4.3377670e-005 0.00e+000 5.95e-003 -11.0 5.95e-003    -  1.00e+000 2.27e-013f 43
 107 4.3377670e-005 0.00e+000 5.95e-003 -11.0 5.95e-003    -  1.00e+000 2.27e-013f 43
 108 4.3377670e-005 0.00e+000 5.95e-003 -11.0 5.95e-003    -  1.00e+000 1.14e-013f 44
 109 4.3377670e-005 0.00e+000 5.95e-003 -11.0 5.95e-003    -  1.00e+000 2.84e-014f 46
iter    objective    inf_pr   inf_du lg(mu)  ||d||  lg(rg) alpha_du alpha_pr  ls
 110 4.3377670e-005 0.00e+000 5.95e-003 -11.0 5.95e-003    -  1.00e+000 2.84e-014f 46
 111 4.3377670e-005 0.00e+000 5.95e-003 -11.0 5.95e-003    -  1.00e+000 2.84e-014f 46
 112 4.3383713e-005 0.00e+000 5.95e-003 -11.0 5.95e-003    -  1.00e+000 1.00e+000w  1
 113 1.3468915e-001 0.00e+000 1.16e+000 -11.0 6.83e+002    -  1.00e+000 1.00e+000w  1
 114 1.5404340e-001 0.00e+000 1.39e+000 -11.0 2.78e+002    -  1.00e+000 1.00e+000w  1
 115 4.3383713e-005 0.00e+000 5.95e-003 -11.0 1.53e+003    -  1.00e+000 1.00e+000S 21
 116 4.3383713e-005 0.00e+000 5.95e-003 -11.0 1.78e+002    -  1.00e+000 1.78e-015f 50
 117 4.3383713e-005 0.00e+000 5.95e-003 -11.0 6.77e+003    -  1.00e+000 2.78e-017f 56
 118 4.3383713e-005 0.00e+000 5.95e-003 -11.0 1.31e+003    -  1.00e+000 4.44e-016f 52
 119 4.3383713e-005 0.00e+000 5.95e-003 -11.0 4.39e+003    -  1.00e+000 5.55e-017f 55
iter    objective    inf_pr   inf_du lg(mu)  ||d||  lg(rg) alpha_du alpha_pr  ls
 120 4.3383713e-005 0.00e+000 5.95e-003 -11.0 4.39e+003    -  1.00e+000 2.78e-017f 56
 121 4.3383713e-005 0.00e+000 5.95e-003 -11.0 4.39e+003    -  1.00e+000 6.94e-018f 58
 122 4.3383713e-005 0.00e+000 5.95e-003 -11.0 5.95e-003    -  1.00e+000 1.82e-012f 40
 123 4.3383713e-005 0.00e+000 5.95e-003 -11.0 5.95e-003    -  1.00e+000 2.27e-013f 43
 124 4.3383713e-005 0.00e+000 5.95e-003 -11.0 5.95e-003    -  1.00e+000 2.27e-013f 43
 125 4.3383713e-005 0.00e+000 5.95e-003 -11.0 5.95e-003    -  1.00e+000 1.14e-013f 44
 126 4.3389740e-005 0.00e+000 5.95e-003 -11.0 5.95e-003    -  1.00e+000 1.00e+000w  1
 127 1.8137928e-001 0.00e+000 1.36e+000 -11.0 7.66e+002    -  1.00e+000 1.00e+000w  1
 128 1.3186164e-001 0.00e+000 1.26e+000 -11.0 3.83e+002    -  1.00e+000 1.00e+000w  1
 129 4.3389740e-005 0.00e+000 5.95e-003 -11.0 2.73e+003    -  1.00e+000 1.00e+000S 21
iter    objective    inf_pr   inf_du lg(mu)  ||d||  lg(rg) alpha_du alpha_pr  ls
 130 4.3389740e-005 0.00e+000 5.95e-003 -11.0 1.96e+002    -  1.00e+000 6.94e-018f 58
 131 4.3389740e-005 0.00e+000 5.95e-003 -11.0 1.96e+002    -  1.00e+000 3.47e-018f 59
 132 4.3389740e-005 0.00e+000 5.95e-003 -11.0 1.96e+002    -  1.00e+000 3.47e-018f 59
 133 4.3389740e-005 0.00e+000 5.95e-003 -11.0 5.95e-003    -  1.00e+000 2.27e-013f 43
 134 4.3389740e-005 0.00e+000 5.95e-003 -11.0 5.95e-003    -  1.00e+000 2.27e-013f 43
 135 4.3389740e-005 0.00e+000 5.95e-003 -11.0 5.95e-003    -  1.00e+000 2.27e-013f 43
 136 4.3389740e-005 0.00e+000 5.95e-003 -11.0 5.95e-003    -  1.00e+000 2.27e-013f 43
 137 4.3389740e-005 0.00e+000 5.95e-003 -11.0 5.95e-003    -  1.00e+000 2.27e-013f 43
 138 4.3389740e-005 0.00e+000 5.95e-003 -11.0 5.95e-003    -  1.00e+000 2.27e-013f 43
 139 4.3389740e-005 0.00e+000 5.95e-003 -11.0 5.95e-003    -  1.00e+000 2.27e-013f 43
iter    objective    inf_pr   inf_du lg(mu)  ||d||  lg(rg) alpha_du alpha_pr  ls
 140 4.3395748e-005 0.00e+000 5.95e-003 -11.0 5.95e-003    -  1.00e+000 1.00e+000w  1
 141 2.3778840e-001 0.00e+000 1.56e+000 -11.0 8.46e+002    -  1.00e+000 1.00e+000w  1
 142 1.1244221e-001 0.00e+000 1.15e+000 -11.0 4.84e+002    -  1.00e+000 1.00e+000w  1
 143 4.3395748e-005 0.00e+000 5.95e-003 -11.0 3.83e+003    -  1.00e+000 1.00e+000S 21
 144 4.3395748e-005 0.00e+000 5.95e-003 -11.0 2.39e+002    -  1.00e+000 5.55e-017f 55
 145 4.3395748e-005 0.00e+000 5.95e-003 -11.0 2.39e+002    -  1.00e+000 4.44e-016f 52
 146 4.3395748e-005 0.00e+000 5.95e-003 -11.0 2.41e+003    -  1.00e+000 6.94e-018f 58
 147 4.3395748e-005 0.00e+000 5.95e-003 -11.0 2.41e+003    -  1.00e+000 2.78e-017f 56
 148 4.3395748e-005 0.00e+000 5.95e-003 -11.0 2.41e+003    -  1.00e+000 1.73e-018f 60
 149 4.3395748e-005 0.00e+000 5.95e-003 -11.0 5.95e-003    -  1.00e+000 1.82e-012f 40
iter    objective    inf_pr   inf_du lg(mu)  ||d||  lg(rg) alpha_du alpha_pr  ls
 150 4.3395748e-005 0.00e+000 5.95e-003 -11.0 5.95e-003    -  1.00e+000 2.27e-013f 43
 151 4.3395748e-005 0.00e+000 5.95e-003 -11.0 5.95e-003    -  1.00e+000 2.27e-013f 43
 152 4.3395748e-005 0.00e+000 5.95e-003 -11.0 5.95e-003    -  1.00e+000 2.27e-013f 43
